; llreve-bench/./muz/heap__cocome2_000.smt2
(set-logic HORN)

(declare-fun |END_QUERY| ( ) Bool)
(declare-fun |INV_MAIN_42| ( Int Int Int Int Int Int Int Int (Array Int Int) Int Int Int Int Int Int Int (Array Int Int) ) Bool)

(assert
  (forall ( (A Int) (B Int) (C Int) (D Int) (E Int) (F (Array Int Int)) (G Int) (H Int) (I Int) (J Int) (K Int) (L (Array Int Int)) (v_12 Int) (v_13 Int) (v_14 Int) (v_15 Int) (v_16 Int) ) 
    (=>
      (and
        (and (= E 0)
     (= E K)
     (= D J)
     (= C 0)
     (= C I)
     (= B H)
     (= A G)
     (= F L)
     (= 0 v_12)
     (= 0 v_13)
     (= 0 v_14)
     (= 0 v_15)
     (= 0 v_16))
      )
      (INV_MAIN_42 v_12 A B v_13 C D E v_14 F v_15 G H I J K v_16 L)
    )
  )
)
(assert
  (forall ( (A Int) (B Int) (C Int) (D Int) (E Int) (F Int) (G Int) (H Int) (I Int) (J Int) (K Int) (L Int) (M Int) (N Int) (O Int) (P (Array Int Int)) (Q (Array Int Int)) ) 
    (=>
      (and
        (INV_MAIN_42 E F A G H B M L P J I C K D O N Q)
        (let ((a!1 (not (= (+ L (* (- 1) M)) (+ N (* (- 1) O))))))
  (and (<= I J) (<= H G) (<= F E) (or a!1 (not (= P Q))) (<= K J)))
      )
      END_QUERY
    )
  )
)
(assert
  (forall ( (A Int) (B Int) (C Int) (D Int) (E Int) (F Int) (G Int) (H Int) (I Int) (J Int) (K Int) (L Int) (M Int) (N (Array Int Int)) (O Int) (P Int) (Q Int) (R Int) (S Int) (T Int) (U Int) (V (Array Int Int)) ) 
    (=>
      (and
        (INV_MAIN_42 K F J M G L H I N U O S P T Q R V)
        (let ((a!1 (+ I (select N (+ J (* 4 K))) (select N (+ L (* 4 M)))))
      (a!2 (+ R (select V (+ S (* 4 U))) (select V (+ T (* 4 U))))))
  (and (= D (+ 1 M))
       (= C a!1)
       (= B (+ 1 U))
       (= A a!2)
       (not (<= F K))
       (not (<= G M))
       (not (<= P U))
       (not (<= O U))
       (or (not (<= G M)) (not (<= F K)))
       (or (not (<= O U)) (not (<= P U)))
       (= E (+ 1 K))))
      )
      (INV_MAIN_42 E F J D G L H C N B O S P T Q A V)
    )
  )
)
(assert
  (forall ( (A Int) (B Int) (C Int) (D Int) (E Int) (F Int) (G Int) (H Int) (I Int) (J Int) (K Int) (L Int) (M Int) (N (Array Int Int)) (O Int) (P Int) (Q Int) (R Int) (S Int) (T Int) (U Int) (V (Array Int Int)) ) 
    (=>
      (and
        (INV_MAIN_42 K F J M G L H I N U O T P Q R S V)
        (let ((a!1 (+ I (select N (+ J (* 4 K))) (select N (+ L (* 4 M)))))
      (a!2 (+ S (select V (+ T (* 4 U))))))
  (and (= D (+ 1 M))
       (= C a!1)
       (= B (+ 1 U))
       (= A a!2)
       (not (<= F K))
       (not (<= G M))
       (<= P U)
       (not (<= O U))
       (or (not (<= G M)) (not (<= F K)))
       (or (not (<= O U)) (not (<= P U)))
       (= E (+ 1 K))))
      )
      (INV_MAIN_42 E F J D G L H C N B O T P Q R A V)
    )
  )
)
(assert
  (forall ( (A Int) (B Int) (C Int) (D Int) (E Int) (F Int) (G Int) (H Int) (I Int) (J Int) (K Int) (L Int) (M Int) (N (Array Int Int)) (O Int) (P Int) (Q Int) (R Int) (S Int) (T Int) (U Int) (V (Array Int Int)) ) 
    (=>
      (and
        (INV_MAIN_42 K F J M G L H I N U O P Q T R S V)
        (let ((a!1 (+ I (select N (+ J (* 4 K))) (select N (+ L (* 4 M)))))
      (a!2 (+ S (select V (+ T (* 4 U))))))
  (and (= D (+ 1 M))
       (= C a!1)
       (= B (+ 1 U))
       (= A a!2)
       (not (<= F K))
       (not (<= G M))
       (not (<= Q U))
       (<= O U)
       (or (not (<= G M)) (not (<= F K)))
       (or (not (<= O U)) (not (<= Q U)))
       (= E (+ 1 K))))
      )
      (INV_MAIN_42 E F J D G L H C N B O P Q T R A V)
    )
  )
)
(assert
  (forall ( (A Int) (B Int) (C Int) (D Int) (E Int) (F Int) (G Int) (H Int) (I Int) (J Int) (K Int) (L Int) (M (Array Int Int)) (N Int) (O Int) (P Int) (Q Int) (R Int) (S Int) (T Int) (U (Array Int Int)) ) 
    (=>
      (and
        (INV_MAIN_42 J E I L F K G H M N O P Q R S T U)
        (let ((a!1 (+ H (select M (+ I (* 4 J))) (select M (+ K (* 4 L))))))
  (and (= C (+ 1 L))
       (= B a!1)
       (= A (+ 1 N))
       (not (<= E J))
       (not (<= F L))
       (<= O N)
       (<= Q N)
       (or (not (<= F L)) (not (<= E J)))
       (or (not (<= Q N)) (not (<= O N)))
       (= D (+ 1 J))))
      )
      (INV_MAIN_42 D E I C F K G B M A O P Q R S T U)
    )
  )
)
(assert
  (forall ( (A Int) (B Int) (C Int) (D Int) (E Int) (F Int) (G Int) (H Int) (I Int) (J Int) (K Int) (L Int) (M Int) (N (Array Int Int)) (O Int) (P Int) (Q Int) (R Int) (S Int) (T Int) (U Int) (V (Array Int Int)) ) 
    (=>
      (and
        (INV_MAIN_42 M F L G H I J K N U O S P T Q R V)
        (let ((a!1 (+ K (select N (+ L (* 4 M)))))
      (a!2 (+ R (select V (+ S (* 4 U))) (select V (+ T (* 4 U))))))
  (and (= D (+ 1 G))
       (= C a!1)
       (= B (+ 1 U))
       (= A a!2)
       (not (<= F M))
       (<= H G)
       (not (<= P U))
       (not (<= O U))
       (or (not (<= H G)) (not (<= F M)))
       (or (not (<= O U)) (not (<= P U)))
       (= E (+ 1 M))))
      )
      (INV_MAIN_42 E F L D H I J C N B O S P T Q A V)
    )
  )
)
(assert
  (forall ( (A Int) (B Int) (C Int) (D Int) (E Int) (F Int) (G Int) (H Int) (I Int) (J Int) (K Int) (L Int) (M Int) (N (Array Int Int)) (O Int) (P Int) (Q Int) (R Int) (S Int) (T Int) (U Int) (V (Array Int Int)) ) 
    (=>
      (and
        (INV_MAIN_42 M F L G H I J K N U O T P Q R S V)
        (let ((a!1 (+ K (select N (+ L (* 4 M))))) (a!2 (+ S (select V (+ T (* 4 U))))))
  (and (= D (+ 1 G))
       (= C a!1)
       (= B (+ 1 U))
       (= A a!2)
       (not (<= F M))
       (<= H G)
       (<= P U)
       (not (<= O U))
       (or (not (<= H G)) (not (<= F M)))
       (or (not (<= O U)) (not (<= P U)))
       (= E (+ 1 M))))
      )
      (INV_MAIN_42 E F L D H I J C N B O T P Q R A V)
    )
  )
)
(assert
  (forall ( (A Int) (B Int) (C Int) (D Int) (E Int) (F Int) (G Int) (H Int) (I Int) (J Int) (K Int) (L Int) (M Int) (N (Array Int Int)) (O Int) (P Int) (Q Int) (R Int) (S Int) (T Int) (U Int) (V (Array Int Int)) ) 
    (=>
      (and
        (INV_MAIN_42 M F L G H I J K N U O P Q T R S V)
        (let ((a!1 (+ K (select N (+ L (* 4 M))))) (a!2 (+ S (select V (+ T (* 4 U))))))
  (and (= D (+ 1 G))
       (= C a!1)
       (= B (+ 1 U))
       (= A a!2)
       (not (<= F M))
       (<= H G)
       (not (<= Q U))
       (<= O U)
       (or (not (<= H G)) (not (<= F M)))
       (or (not (<= O U)) (not (<= Q U)))
       (= E (+ 1 M))))
      )
      (INV_MAIN_42 E F L D H I J C N B O P Q T R A V)
    )
  )
)
(assert
  (forall ( (A Int) (B Int) (C Int) (D Int) (E Int) (F Int) (G Int) (H Int) (I Int) (J Int) (K Int) (L Int) (M (Array Int Int)) (N Int) (O Int) (P Int) (Q Int) (R Int) (S Int) (T Int) (U (Array Int Int)) ) 
    (=>
      (and
        (INV_MAIN_42 L E K F G H I J M N O P Q R S T U)
        (let ((a!1 (+ J (select M (+ K (* 4 L))))))
  (and (= C (+ 1 F))
       (= B a!1)
       (= A (+ 1 N))
       (not (<= E L))
       (<= G F)
       (<= O N)
       (<= Q N)
       (or (not (<= G F)) (not (<= E L)))
       (or (not (<= Q N)) (not (<= O N)))
       (= D (+ 1 L))))
      )
      (INV_MAIN_42 D E K C G H I B M A O P Q R S T U)
    )
  )
)
(assert
  (forall ( (A Int) (B Int) (C Int) (D Int) (E Int) (F Int) (G Int) (H Int) (I Int) (J Int) (K Int) (L Int) (M Int) (N (Array Int Int)) (O Int) (P Int) (Q Int) (R Int) (S Int) (T Int) (U Int) (V (Array Int Int)) ) 
    (=>
      (and
        (INV_MAIN_42 F G H M I L J K N U O S P T Q R V)
        (let ((a!1 (+ K (select N (+ L (* 4 M)))))
      (a!2 (+ R (select V (+ S (* 4 U))) (select V (+ T (* 4 U))))))
  (and (= D (+ 1 M))
       (= C a!1)
       (= B (+ 1 U))
       (= A a!2)
       (<= G F)
       (not (<= I M))
       (not (<= P U))
       (not (<= O U))
       (or (not (<= I M)) (not (<= G F)))
       (or (not (<= O U)) (not (<= P U)))
       (= E (+ 1 F))))
      )
      (INV_MAIN_42 E G H D I L J C N B O S P T Q A V)
    )
  )
)
(assert
  (forall ( (A Int) (B Int) (C Int) (D Int) (E Int) (F Int) (G Int) (H Int) (I Int) (J Int) (K Int) (L Int) (M Int) (N (Array Int Int)) (O Int) (P Int) (Q Int) (R Int) (S Int) (T Int) (U Int) (V (Array Int Int)) ) 
    (=>
      (and
        (INV_MAIN_42 F G H M I L J K N U O T P Q R S V)
        (let ((a!1 (+ K (select N (+ L (* 4 M))))) (a!2 (+ S (select V (+ T (* 4 U))))))
  (and (= D (+ 1 M))
       (= C a!1)
       (= B (+ 1 U))
       (= A a!2)
       (<= G F)
       (not (<= I M))
       (<= P U)
       (not (<= O U))
       (or (not (<= I M)) (not (<= G F)))
       (or (not (<= O U)) (not (<= P U)))
       (= E (+ 1 F))))
      )
      (INV_MAIN_42 E G H D I L J C N B O T P Q R A V)
    )
  )
)
(assert
  (forall ( (A Int) (B Int) (C Int) (D Int) (E Int) (F Int) (G Int) (H Int) (I Int) (J Int) (K Int) (L Int) (M Int) (N (Array Int Int)) (O Int) (P Int) (Q Int) (R Int) (S Int) (T Int) (U Int) (V (Array Int Int)) ) 
    (=>
      (and
        (INV_MAIN_42 F G H M I L J K N U O P Q T R S V)
        (let ((a!1 (+ K (select N (+ L (* 4 M))))) (a!2 (+ S (select V (+ T (* 4 U))))))
  (and (= D (+ 1 M))
       (= C a!1)
       (= B (+ 1 U))
       (= A a!2)
       (<= G F)
       (not (<= I M))
       (not (<= Q U))
       (<= O U)
       (or (not (<= I M)) (not (<= G F)))
       (or (not (<= O U)) (not (<= Q U)))
       (= E (+ 1 F))))
      )
      (INV_MAIN_42 E G H D I L J C N B O P Q T R A V)
    )
  )
)
(assert
  (forall ( (A Int) (B Int) (C Int) (D Int) (E Int) (F Int) (G Int) (H Int) (I Int) (J Int) (K Int) (L Int) (M (Array Int Int)) (N Int) (O Int) (P Int) (Q Int) (R Int) (S Int) (T Int) (U (Array Int Int)) ) 
    (=>
      (and
        (INV_MAIN_42 E F G L H K I J M N O P Q R S T U)
        (let ((a!1 (+ J (select M (+ K (* 4 L))))))
  (and (= C (+ 1 L))
       (= B a!1)
       (= A (+ 1 N))
       (<= F E)
       (not (<= H L))
       (<= O N)
       (<= Q N)
       (or (not (<= H L)) (not (<= F E)))
       (or (not (<= Q N)) (not (<= O N)))
       (= D (+ 1 E))))
      )
      (INV_MAIN_42 D F G C H K I B M A O P Q R S T U)
    )
  )
)
(assert
  (forall ( (A Int) (B Int) (C Int) (D Int) (E Int) (F Int) (G Int) (H Int) (I Int) (J Int) (K Int) (L Int) (M (Array Int Int)) (N Int) (O Int) (P Int) (Q Int) (R Int) (S Int) (T Int) (U (Array Int Int)) ) 
    (=>
      (and
        (INV_MAIN_42 E F G H I J K L M T N R O S P Q U)
        (let ((a!1 (+ Q (select U (+ R (* 4 T))) (select U (+ S (* 4 T))))))
  (and (= C (+ 1 H))
       (= B (+ 1 T))
       (= A a!1)
       (<= F E)
       (<= I H)
       (not (<= O T))
       (not (<= N T))
       (or (not (<= I H)) (not (<= F E)))
       (or (not (<= N T)) (not (<= O T)))
       (= D (+ 1 E))))
      )
      (INV_MAIN_42 D F G C I J K L M B N R O S P A U)
    )
  )
)
(assert
  (forall ( (A Int) (B Int) (C Int) (D Int) (E Int) (F Int) (G Int) (H Int) (I Int) (J Int) (K Int) (L Int) (M (Array Int Int)) (N Int) (O Int) (P Int) (Q Int) (R Int) (S Int) (T Int) (U (Array Int Int)) ) 
    (=>
      (and
        (INV_MAIN_42 E F G H I J K L M T N S O P Q R U)
        (let ((a!1 (+ R (select U (+ S (* 4 T))))))
  (and (= C (+ 1 H))
       (= B (+ 1 T))
       (= A a!1)
       (<= F E)
       (<= I H)
       (<= O T)
       (not (<= N T))
       (or (not (<= I H)) (not (<= F E)))
       (or (not (<= N T)) (not (<= O T)))
       (= D (+ 1 E))))
      )
      (INV_MAIN_42 D F G C I J K L M B N S O P Q A U)
    )
  )
)
(assert
  (forall ( (A Int) (B Int) (C Int) (D Int) (E Int) (F Int) (G Int) (H Int) (I Int) (J Int) (K Int) (L Int) (M (Array Int Int)) (N Int) (O Int) (P Int) (Q Int) (R Int) (S Int) (T Int) (U (Array Int Int)) ) 
    (=>
      (and
        (INV_MAIN_42 E F G H I J K L M T N O P S Q R U)
        (let ((a!1 (+ R (select U (+ S (* 4 T))))))
  (and (= C (+ 1 H))
       (= B (+ 1 T))
       (= A a!1)
       (<= F E)
       (<= I H)
       (not (<= P T))
       (<= N T)
       (or (not (<= I H)) (not (<= F E)))
       (or (not (<= N T)) (not (<= P T)))
       (= D (+ 1 E))))
      )
      (INV_MAIN_42 D F G C I J K L M B N O P S Q A U)
    )
  )
)
(assert
  (forall ( (A Int) (B Int) (C Int) (D Int) (E Int) (F Int) (G Int) (H Int) (I Int) (J Int) (K Int) (L (Array Int Int)) (M Int) (N Int) (O Int) (P Int) (Q Int) (R Int) (S Int) (T (Array Int Int)) ) 
    (=>
      (and
        (INV_MAIN_42 D E F G H I J K L M N O P Q R S T)
        (and (= B (+ 1 G))
     (= A (+ 1 M))
     (<= E D)
     (<= H G)
     (<= N M)
     (<= P M)
     (or (not (<= H G)) (not (<= E D)))
     (or (not (<= P M)) (not (<= N M)))
     (= C (+ 1 D)))
      )
      (INV_MAIN_42 C E F B H I J K L A N O P Q R S T)
    )
  )
)
(assert
  (forall ( (A Int) (B Int) (C Int) (D Int) (E Int) (F Int) (G Int) (H Int) (I Int) (J Int) (K Int) (L (Array Int Int)) (M Int) (N Int) (O Int) (P Int) (Q Int) (R Int) (S Int) (T (Array Int Int)) ) 
    (=>
      (and
        (INV_MAIN_42 I D H K E J F G L M N O P Q R S T)
        (let ((a!1 (+ G (select L (+ H (* 4 I))) (select L (+ J (* 4 K))))))
  (and (= B (+ 1 K))
       (= A a!1)
       (not (<= D I))
       (not (<= E K))
       (or (and (<= P M) (<= N M)) (<= P M) (<= N M))
       (or (and (<= P M) (<= N M)) (<= P M) (not (<= N M)))
       (or (and (<= P M) (<= N M)) (not (<= P M)) (<= N M))
       (or (and (<= P M) (<= N M)) (not (<= P M)) (not (<= N M)))
       (or (not (<= E K)) (not (<= D I)))
       (= C (+ 1 I))))
      )
      (INV_MAIN_42 C D H B E J F A L M N O P Q R S T)
    )
  )
)
(assert
  (forall ( (A Int) (B Int) (C Int) (D Int) (E Int) (F Int) (G Int) (H Int) (I Int) (J Int) (K Int) (L (Array Int Int)) (M Int) (N Int) (O Int) (P Int) (Q Int) (R Int) (S Int) (T (Array Int Int)) ) 
    (=>
      (and
        (INV_MAIN_42 K D J E F G H I L M N O P Q R S T)
        (let ((a!1 (+ I (select L (+ J (* 4 K))))))
  (and (= B (+ 1 E))
       (= A a!1)
       (not (<= D K))
       (<= F E)
       (or (and (<= P M) (<= N M)) (<= P M) (<= N M))
       (or (and (<= P M) (<= N M)) (<= P M) (not (<= N M)))
       (or (and (<= P M) (<= N M)) (not (<= P M)) (<= N M))
       (or (and (<= P M) (<= N M)) (not (<= P M)) (not (<= N M)))
       (or (not (<= F E)) (not (<= D K)))
       (= C (+ 1 K))))
      )
      (INV_MAIN_42 C D J B F G H A L M N O P Q R S T)
    )
  )
)
(assert
  (forall ( (A Int) (B Int) (C Int) (D Int) (E Int) (F Int) (G Int) (H Int) (I Int) (J Int) (K Int) (L (Array Int Int)) (M Int) (N Int) (O Int) (P Int) (Q Int) (R Int) (S Int) (T (Array Int Int)) ) 
    (=>
      (and
        (INV_MAIN_42 D E F K G J H I L M N O P Q R S T)
        (let ((a!1 (+ I (select L (+ J (* 4 K))))))
  (and (= B (+ 1 K))
       (= A a!1)
       (<= E D)
       (not (<= G K))
       (or (and (<= P M) (<= N M)) (<= P M) (<= N M))
       (or (and (<= P M) (<= N M)) (<= P M) (not (<= N M)))
       (or (and (<= P M) (<= N M)) (not (<= P M)) (<= N M))
       (or (and (<= P M) (<= N M)) (not (<= P M)) (not (<= N M)))
       (or (not (<= G K)) (not (<= E D)))
       (= C (+ 1 D))))
      )
      (INV_MAIN_42 C E F B G J H A L M N O P Q R S T)
    )
  )
)
(assert
  (forall ( (A Int) (B Int) (C Int) (D Int) (E Int) (F Int) (G Int) (H Int) (I Int) (J Int) (K (Array Int Int)) (L Int) (M Int) (N Int) (O Int) (P Int) (Q Int) (R Int) (S (Array Int Int)) ) 
    (=>
      (and
        (INV_MAIN_42 C D E F G H I J K L M N O P Q R S)
        (and (= A (+ 1 F))
     (<= D C)
     (<= G F)
     (or (and (<= O L) (<= M L)) (<= O L) (<= M L))
     (or (and (<= O L) (<= M L)) (<= O L) (not (<= M L)))
     (or (and (<= O L) (<= M L)) (not (<= O L)) (<= M L))
     (or (and (<= O L) (<= M L)) (not (<= O L)) (not (<= M L)))
     (or (not (<= G F)) (not (<= D C)))
     (= B (+ 1 C)))
      )
      (INV_MAIN_42 B D E A G H I J K L M N O P Q R S)
    )
  )
)
(assert
  (forall ( (A Int) (B Int) (C Int) (D Int) (E Int) (F Int) (G Int) (H Int) (I Int) (J Int) (K (Array Int Int)) (L Int) (M Int) (N Int) (O Int) (P Int) (Q Int) (R Int) (S (Array Int Int)) ) 
    (=>
      (and
        (INV_MAIN_42 C D E F G H I J K R L P M Q N O S)
        (let ((a!1 (+ O (select S (+ P (* 4 R))) (select S (+ Q (* 4 R))))))
  (and (= A a!1)
       (not (<= M R))
       (not (<= L R))
       (or (and (<= G F) (<= D C)) (<= G F) (<= D C))
       (or (and (<= G F) (<= D C)) (<= G F) (not (<= D C)))
       (or (and (<= G F) (<= D C)) (not (<= G F)) (<= D C))
       (or (and (<= G F) (<= D C)) (not (<= G F)) (not (<= D C)))
       (or (not (<= L R)) (not (<= M R)))
       (= B (+ 1 R))))
      )
      (INV_MAIN_42 C D E F G H I J K B L P M Q N A S)
    )
  )
)
(assert
  (forall ( (A Int) (B Int) (C Int) (D Int) (E Int) (F Int) (G Int) (H Int) (I Int) (J Int) (K (Array Int Int)) (L Int) (M Int) (N Int) (O Int) (P Int) (Q Int) (R Int) (S (Array Int Int)) ) 
    (=>
      (and
        (INV_MAIN_42 C D E F G H I J K R L Q M N O P S)
        (let ((a!1 (+ P (select S (+ Q (* 4 R))))))
  (and (= A a!1)
       (<= M R)
       (not (<= L R))
       (or (and (<= G F) (<= D C)) (<= G F) (<= D C))
       (or (and (<= G F) (<= D C)) (<= G F) (not (<= D C)))
       (or (and (<= G F) (<= D C)) (not (<= G F)) (<= D C))
       (or (and (<= G F) (<= D C)) (not (<= G F)) (not (<= D C)))
       (or (not (<= L R)) (not (<= M R)))
       (= B (+ 1 R))))
      )
      (INV_MAIN_42 C D E F G H I J K B L Q M N O A S)
    )
  )
)
(assert
  (forall ( (A Int) (B Int) (C Int) (D Int) (E Int) (F Int) (G Int) (H Int) (I Int) (J Int) (K (Array Int Int)) (L Int) (M Int) (N Int) (O Int) (P Int) (Q Int) (R Int) (S (Array Int Int)) ) 
    (=>
      (and
        (INV_MAIN_42 C D E F G H I J K R L M N Q O P S)
        (let ((a!1 (+ P (select S (+ Q (* 4 R))))))
  (and (= A a!1)
       (not (<= N R))
       (<= L R)
       (or (and (<= G F) (<= D C)) (<= G F) (<= D C))
       (or (and (<= G F) (<= D C)) (<= G F) (not (<= D C)))
       (or (and (<= G F) (<= D C)) (not (<= G F)) (<= D C))
       (or (and (<= G F) (<= D C)) (not (<= G F)) (not (<= D C)))
       (or (not (<= L R)) (not (<= N R)))
       (= B (+ 1 R))))
      )
      (INV_MAIN_42 C D E F G H I J K B L M N Q O A S)
    )
  )
)
(assert
  (forall ( (A Int) (B Int) (C Int) (D Int) (E Int) (F Int) (G Int) (H Int) (I Int) (J (Array Int Int)) (K Int) (L Int) (M Int) (N Int) (O Int) (P Int) (Q Int) (R (Array Int Int)) ) 
    (=>
      (and
        (INV_MAIN_42 B C D E F G H I J K L M N O P Q R)
        (and (<= L K)
     (<= N K)
     (or (and (<= F E) (<= C B)) (<= F E) (<= C B))
     (or (and (<= F E) (<= C B)) (<= F E) (not (<= C B)))
     (or (and (<= F E) (<= C B)) (not (<= F E)) (<= C B))
     (or (and (<= F E) (<= C B)) (not (<= F E)) (not (<= C B)))
     (or (not (<= N K)) (not (<= L K)))
     (= A (+ 1 K)))
      )
      (INV_MAIN_42 B C D E F G H I J A L M N O P Q R)
    )
  )
)
(assert
  (forall ( (CHC_COMP_UNUSED Bool) ) 
    (=>
      (and
        END_QUERY
        true
      )
      false
    )
  )
)

(check-sat)
(exit)
